p cnf 166 560
c p weight -65 1 0
c p weight 65 -1 0
c p weight 69 6.12323399573676603586882014729198302312846062338790031898128063403419218957424163818359375E-17 0
c p weight -69 1 0
c p weight 70 1 0
c p weight -70 1 0
c p weight -67 1 0
c p weight 67 -1 0
c p weight -71 1 0
c p weight 71 -1 0
c p weight -73 1 0
c p weight 73 -1 0
c p weight -76 1 0
c p weight 76 -1 0
c p weight -79 1 0
c p weight 79 -1 0
c p weight -82 1 0
c p weight 82 -1 0
c p weight -85 1 0
c p weight 85 -1 0
c p weight -88 1 0
c p weight 88 -1 0
c p weight -91 1 0
c p weight 91 -1 0
c p weight -94 1 0
c p weight 94 -1 0
c p weight -97 1 0
c p weight 97 -1 0
c p weight -100 1 0
c p weight 100 -1 0
c p weight -103 1 0
c p weight 103 -1 0
c p weight -106 1 0
c p weight 106 -1 0
c p weight -109 1 0
c p weight 109 -1 0
c p weight -112 1 0
c p weight 112 -1 0
c p weight -115 1 0
c p weight 115 -1 0
c p weight -118 1 0
c p weight 118 -1 0
c p weight -121 1 0
c p weight 121 -1 0
c p weight -124 1 0
c p weight 124 -1 0
c p weight -127 1 0
c p weight 127 -1 0
c p weight -130 1 0
c p weight 130 -1 0
c p weight -133 1 0
c p weight 133 -1 0
c p weight -136 1 0
c p weight 136 -1 0
c p weight -139 1 0
c p weight 139 -1 0
c p weight -142 1 0
c p weight 142 -1 0
c p weight -145 1 0
c p weight 145 -1 0
c p weight -148 1 0
c p weight 148 -1 0
c p weight -151 1 0
c p weight 151 -1 0
c p weight -154 1 0
c p weight 154 -1 0
c p weight -157 1 0
c p weight 157 -1 0
c p weight -160 1 0
c p weight 160 -1 0
c p weight -163 1 0
c p weight 163 -1 0
c p weight 166 0.5 0
c p weight -166 1 0
166 0
-63 0
-61 0
-59 0
-57 0
-55 0
-53 0
-51 0
-49 0
-47 0
-45 0
-43 0
-41 0
-39 0
-37 0
-35 0
-33 0
-31 0
-29 0
-27 0
-25 0
-23 0
-21 0
-19 0
-17 0
-15 0
-13 0
-11 0
-9 0
-7 0
-5 0
-3 0
-1 0
-65 63 0
-65 64 0
65 -63 -64 0
66 63 -64 0
66 -63 64 0
-66 63 64 0
-66 -63 -64 0
-67 68 0
-67 66 0
-67 -63 0
67 -68 63 -66 0
68 -63 66 0
-68 63 66 0
-69 66 0
68 -69 -63 0
-68 -69 63 0
68 69 63 -66 0
-68 69 -63 -66 0
-70 66 0
68 -70 63 0
-68 -70 -63 0
68 70 -63 -66 0
-68 70 63 -66 0
-71 68 0
-71 66 0
71 -68 -66 0
72 68 -66 0
72 -68 66 0
-72 68 66 0
-72 -68 -66 0
-73 68 0
-73 62 0
-73 61 -72 0
-73 -61 72 0
73 -68 61 72 -62 0
73 -68 -61 -72 -62 0
75 68 -61 0
75 -68 61 0
-75 68 61 0
-75 -68 -61 0
74 72 -62 0
74 -72 62 0
-74 72 62 0
-74 -72 -62 0
-76 75 0
-76 60 0
-76 59 -62 0
-76 -59 62 0
76 -75 59 62 -60 0
76 -75 -59 -62 -60 0
78 75 -59 0
78 -75 59 0
-78 75 59 0
-78 -75 -59 0
77 62 -60 0
77 -62 60 0
-77 62 60 0
-77 -62 -60 0
-79 78 0
-79 58 0
-79 57 -60 0
-79 -57 60 0
79 -78 57 60 -58 0
79 -78 -57 -60 -58 0
81 78 -57 0
81 -78 57 0
-81 78 57 0
-81 -78 -57 0
80 60 -58 0
80 -60 58 0
-80 60 58 0
-80 -60 -58 0
-82 81 0
-82 56 0
-82 55 -58 0
-82 -55 58 0
82 -81 55 58 -56 0
82 -81 -55 -58 -56 0
84 81 -55 0
84 -81 55 0
-84 81 55 0
-84 -81 -55 0
83 58 -56 0
83 -58 56 0
-83 58 56 0
-83 -58 -56 0
-85 84 0
-85 54 0
-85 53 -56 0
-85 -53 56 0
85 -84 53 56 -54 0
85 -84 -53 -56 -54 0
87 84 -53 0
87 -84 53 0
-87 84 53 0
-87 -84 -53 0
86 56 -54 0
86 -56 54 0
-86 56 54 0
-86 -56 -54 0
-88 87 0
-88 52 0
-88 51 -54 0
-88 -51 54 0
88 -87 51 54 -52 0
88 -87 -51 -54 -52 0
90 87 -51 0
90 -87 51 0
-90 87 51 0
-90 -87 -51 0
89 54 -52 0
89 -54 52 0
-89 54 52 0
-89 -54 -52 0
-91 90 0
-91 50 0
-91 49 -52 0
-91 -49 52 0
91 -90 49 52 -50 0
91 -90 -49 -52 -50 0
93 90 -49 0
93 -90 49 0
-93 90 49 0
-93 -90 -49 0
92 52 -50 0
92 -52 50 0
-92 52 50 0
-92 -52 -50 0
-94 93 0
-94 48 0
-94 47 -50 0
-94 -47 50 0
94 -93 47 50 -48 0
94 -93 -47 -50 -48 0
96 93 -47 0
96 -93 47 0
-96 93 47 0
-96 -93 -47 0
95 50 -48 0
95 -50 48 0
-95 50 48 0
-95 -50 -48 0
-97 96 0
-97 46 0
-97 45 -48 0
-97 -45 48 0
97 -96 45 48 -46 0
97 -96 -45 -48 -46 0
99 96 -45 0
99 -96 45 0
-99 96 45 0
-99 -96 -45 0
98 48 -46 0
98 -48 46 0
-98 48 46 0
-98 -48 -46 0
-100 99 0
-100 44 0
-100 43 -46 0
-100 -43 46 0
100 -99 43 46 -44 0
100 -99 -43 -46 -44 0
102 99 -43 0
102 -99 43 0
-102 99 43 0
-102 -99 -43 0
101 46 -44 0
101 -46 44 0
-101 46 44 0
-101 -46 -44 0
-103 102 0
-103 42 0
-103 41 -44 0
-103 -41 44 0
103 -102 41 44 -42 0
103 -102 -41 -44 -42 0
105 102 -41 0
105 -102 41 0
-105 102 41 0
-105 -102 -41 0
104 44 -42 0
104 -44 42 0
-104 44 42 0
-104 -44 -42 0
-106 105 0
-106 40 0
-106 39 -42 0
-106 -39 42 0
106 -105 39 42 -40 0
106 -105 -39 -42 -40 0
108 105 -39 0
108 -105 39 0
-108 105 39 0
-108 -105 -39 0
107 42 -40 0
107 -42 40 0
-107 42 40 0
-107 -42 -40 0
-109 108 0
-109 38 0
-109 37 -40 0
-109 -37 40 0
109 -108 37 40 -38 0
109 -108 -37 -40 -38 0
111 108 -37 0
111 -108 37 0
-111 108 37 0
-111 -108 -37 0
110 40 -38 0
110 -40 38 0
-110 40 38 0
-110 -40 -38 0
-112 111 0
-112 36 0
-112 35 -38 0
-112 -35 38 0
112 -111 35 38 -36 0
112 -111 -35 -38 -36 0
114 111 -35 0
114 -111 35 0
-114 111 35 0
-114 -111 -35 0
113 38 -36 0
113 -38 36 0
-113 38 36 0
-113 -38 -36 0
-115 114 0
-115 34 0
-115 33 -36 0
-115 -33 36 0
115 -114 33 36 -34 0
115 -114 -33 -36 -34 0
117 114 -33 0
117 -114 33 0
-117 114 33 0
-117 -114 -33 0
116 36 -34 0
116 -36 34 0
-116 36 34 0
-116 -36 -34 0
-118 117 0
-118 32 0
-118 31 -34 0
-118 -31 34 0
118 -117 31 34 -32 0
118 -117 -31 -34 -32 0
120 117 -31 0
120 -117 31 0
-120 117 31 0
-120 -117 -31 0
119 34 -32 0
119 -34 32 0
-119 34 32 0
-119 -34 -32 0
-121 120 0
-121 30 0
-121 29 -32 0
-121 -29 32 0
121 -120 29 32 -30 0
121 -120 -29 -32 -30 0
123 120 -29 0
123 -120 29 0
-123 120 29 0
-123 -120 -29 0
122 32 -30 0
122 -32 30 0
-122 32 30 0
-122 -32 -30 0
-124 123 0
-124 28 0
-124 27 -30 0
-124 -27 30 0
124 -123 27 30 -28 0
124 -123 -27 -30 -28 0
126 123 -27 0
126 -123 27 0
-126 123 27 0
-126 -123 -27 0
125 30 -28 0
125 -30 28 0
-125 30 28 0
-125 -30 -28 0
-127 126 0
-127 26 0
-127 25 -28 0
-127 -25 28 0
127 -126 25 28 -26 0
127 -126 -25 -28 -26 0
129 126 -25 0
129 -126 25 0
-129 126 25 0
-129 -126 -25 0
128 28 -26 0
128 -28 26 0
-128 28 26 0
-128 -28 -26 0
-130 129 0
-130 24 0
-130 23 -26 0
-130 -23 26 0
130 -129 23 26 -24 0
130 -129 -23 -26 -24 0
132 129 -23 0
132 -129 23 0
-132 129 23 0
-132 -129 -23 0
131 26 -24 0
131 -26 24 0
-131 26 24 0
-131 -26 -24 0
-133 132 0
-133 22 0
-133 21 -24 0
-133 -21 24 0
133 -132 21 24 -22 0
133 -132 -21 -24 -22 0
135 132 -21 0
135 -132 21 0
-135 132 21 0
-135 -132 -21 0
134 24 -22 0
134 -24 22 0
-134 24 22 0
-134 -24 -22 0
-136 135 0
-136 20 0
-136 19 -22 0
-136 -19 22 0
136 -135 19 22 -20 0
136 -135 -19 -22 -20 0
138 135 -19 0
138 -135 19 0
-138 135 19 0
-138 -135 -19 0
137 22 -20 0
137 -22 20 0
-137 22 20 0
-137 -22 -20 0
-139 138 0
-139 18 0
-139 17 -20 0
-139 -17 20 0
139 -138 17 20 -18 0
139 -138 -17 -20 -18 0
141 138 -17 0
141 -138 17 0
-141 138 17 0
-141 -138 -17 0
140 20 -18 0
140 -20 18 0
-140 20 18 0
-140 -20 -18 0
-142 141 0
-142 16 0
-142 15 -18 0
-142 -15 18 0
142 -141 15 18 -16 0
142 -141 -15 -18 -16 0
144 141 -15 0
144 -141 15 0
-144 141 15 0
-144 -141 -15 0
143 18 -16 0
143 -18 16 0
-143 18 16 0
-143 -18 -16 0
-145 144 0
-145 14 0
-145 13 -16 0
-145 -13 16 0
145 -144 13 16 -14 0
145 -144 -13 -16 -14 0
147 144 -13 0
147 -144 13 0
-147 144 13 0
-147 -144 -13 0
146 16 -14 0
146 -16 14 0
-146 16 14 0
-146 -16 -14 0
-148 147 0
-148 12 0
-148 11 -14 0
-148 -11 14 0
148 -147 11 14 -12 0
148 -147 -11 -14 -12 0
150 147 -11 0
150 -147 11 0
-150 147 11 0
-150 -147 -11 0
149 14 -12 0
149 -14 12 0
-149 14 12 0
-149 -14 -12 0
-151 150 0
-151 10 0
-151 9 -12 0
-151 -9 12 0
151 -150 9 12 -10 0
151 -150 -9 -12 -10 0
153 150 -9 0
153 -150 9 0
-153 150 9 0
-153 -150 -9 0
152 12 -10 0
152 -12 10 0
-152 12 10 0
-152 -12 -10 0
-154 153 0
-154 8 0
-154 7 -10 0
-154 -7 10 0
154 -153 7 10 -8 0
154 -153 -7 -10 -8 0
156 153 -7 0
156 -153 7 0
-156 153 7 0
-156 -153 -7 0
155 10 -8 0
155 -10 8 0
-155 10 8 0
-155 -10 -8 0
-157 156 0
-157 6 0
-157 5 -8 0
-157 -5 8 0
157 -156 5 8 -6 0
157 -156 -5 -8 -6 0
159 156 -5 0
159 -156 5 0
-159 156 5 0
-159 -156 -5 0
158 8 -6 0
158 -8 6 0
-158 8 6 0
-158 -8 -6 0
-160 159 0
-160 4 0
-160 3 -6 0
-160 -3 6 0
160 -159 3 6 -4 0
160 -159 -3 -6 -4 0
162 159 -3 0
162 -159 3 0
-162 159 3 0
-162 -159 -3 0
161 6 -4 0
161 -6 4 0
-161 6 4 0
-161 -6 -4 0
-163 162 0
-163 2 0
-163 1 -4 0
-163 -1 4 0
163 -162 1 4 -2 0
163 -162 -1 -4 -2 0
165 162 -1 0
165 -162 1 0
-165 162 1 0
-165 -162 -1 0
164 4 -2 0
164 -4 2 0
-164 4 2 0
-164 -4 -2 0
-165 0
-162 0
-164 0
-159 0
-161 0
-156 0
-158 0
-153 0
-155 0
-150 0
-152 0
-147 0
-149 0
-144 0
-146 0
-141 0
-143 0
-138 0
-140 0
-135 0
-137 0
-132 0
-134 0
-129 0
-131 0
-126 0
-128 0
-123 0
-125 0
-120 0
-122 0
-117 0
-119 0
-114 0
-116 0
-111 0
-113 0
-108 0
-110 0
-105 0
-107 0
-102 0
-104 0
-99 0
-101 0
-96 0
-98 0
-93 0
-95 0
-90 0
-92 0
-87 0
-89 0
-84 0
-86 0
-81 0
-83 0
-78 0
-80 0
-75 0
-77 0
-68 0
-74 0
